interface IActuator {
	
	enum State { Withdrawn, Extended };
	in void extend();
	in void withdraw();
	
	behaviour {
		State state = State.Withdrawn;
		
		on extend: {state = State.Extended;}
		on withdraw: {state = State.Withdrawn;} 
	}
}

component Actuator
{
	provides IActuator actuator;
}